
******************************************************************************
This program contains Ipopt, a library for large-scale nonlinear optimization.
 Ipopt is released as open source code under the Eclipse Public License (EPL).
         For more information visit http://projects.coin-or.org/Ipopt
******************************************************************************

This is Ipopt version 3.12.4, running with linear solver mumps.
NOTE: Other linear solvers might be more efficient (see Ipopt documentation).

Number of nonzeros in equality constraint Jacobian...:        0
Number of nonzeros in inequality constraint Jacobian.:        0
Number of nonzeros in Lagrangian Hessian.............:        0

Total number of variables............................:    68921
                     variables with only lower bounds:        0
                variables with lower and upper bounds:        0
                     variables with only upper bounds:        0
Total number of equality constraints.................:        0
Total number of inequality constraints...............:        0
        inequality constraints with only lower bounds:        0
   inequality constraints with lower and upper bounds:        0
        inequality constraints with only upper bounds:        0

iter    objective    inf_pr   inf_du lg(mu)  ||d||  lg(rg) alpha_du alpha_pr  ls
   0 5.1902203e-004 0.00e+000 8.45e-003   0.0 0.00e+000    -  0.00e+000 0.00e+000   0
   1 5.1064235e-004 0.00e+000 8.37e-003 -11.0 8.45e-003    -  1.00e+000 1.00e+000f  1
   2 2.0308896e-006 0.00e+000 3.68e-004 -11.0 1.04e+000    -  1.00e+000 1.00e+000f  1
   3 1.1326452e-006 0.00e+000 1.48e-004 -11.0 4.88e-002    -  1.00e+000 1.00e+000f  1
   4 8.3600337e-007 0.00e+000 8.54e-005 -11.0 3.93e-002    -  1.00e+000 1.00e+000f  1
   5 7.1361719e-007 0.00e+000 5.25e-005 -11.0 3.48e-002    -  1.00e+000 1.00e+000f  1
   6 6.9278398e-007 0.00e+000 8.17e-005 -11.0 4.25e-002    -  1.00e+000 5.00e-001f  2
   7 6.7810337e-007 0.00e+000 2.86e-005 -11.0 1.28e-002    -  1.00e+000 1.00e+000f  1
   8 6.7422810e-007 0.00e+000 1.11e-005 -11.0 5.28e-003    -  1.00e+000 1.00e+000f  1
   9 6.7330786e-007 0.00e+000 6.07e-006 -11.0 1.63e-003    -  1.00e+000 1.00e+000f  1
iter    objective    inf_pr   inf_du lg(mu)  ||d||  lg(rg) alpha_du alpha_pr  ls
  10 6.7197817e-007 0.00e+000 5.55e-006 -11.0 4.90e-003    -  1.00e+000 1.00e+000f  1
  11 6.7176907e-007 0.00e+000 1.04e-005 -11.0 1.04e-002    -  1.00e+000 2.50e-001f  3
  12 6.7115823e-007 0.00e+000 4.04e-006 -11.0 3.21e-003    -  1.00e+000 1.00e+000f  1
  13 6.7106022e-007 0.00e+000 6.28e-006 -11.0 6.71e-003    -  1.00e+000 5.00e-001f  2
  14 6.7081671e-007 0.00e+000 7.95e-006 -11.0 4.56e-003    -  1.00e+000 1.00e+000f  1
  15 6.7071179e-007 0.00e+000 5.67e-006 -11.0 9.31e-003    -  1.00e+000 2.50e-001f  3
  16 6.7062436e-007 0.00e+000 3.30e-006 -11.0 1.24e-003    -  1.00e+000 1.00e+000f  1
  17 6.7054614e-007 0.00e+000 1.22e-006 -11.0 8.30e-004    -  1.00e+000 1.00e+000f  1
  18 6.7049809e-007 0.00e+000 1.10e-006 -11.0 1.65e-003    -  1.00e+000 1.00e+000f  1
  19 6.7048049e-007 0.00e+000 2.77e-006 -11.0 1.53e-002    -  1.00e+000 1.25e-001f  4
iter    objective    inf_pr   inf_du lg(mu)  ||d||  lg(rg) alpha_du alpha_pr  ls
  20 6.7043514e-007 0.00e+000 2.33e-006 -11.0 8.42e-003    -  1.00e+000 5.00e-001f  2
  21 6.7041310e-007 0.00e+000 1.73e-006 -11.0 1.75e-002    -  1.00e+000 1.25e-001f  4
  22 6.7039571e-007 0.00e+000 1.62e-006 -11.0 2.47e-003    -  1.00e+000 2.50e-001f  3
  23 6.7037450e-007 0.00e+000 2.07e-006 -11.0 1.11e-003    -  1.00e+000 1.00e+000f  1
  24 6.7036740e-007 0.00e+000 1.25e-006 -11.0 1.21e-003    -  1.00e+000 5.00e-001f  2
  25 6.7035932e-007 0.00e+000 1.00e-006 -11.0 9.18e-004    -  1.00e+000 1.00e+000f  1
  26 6.7035777e-007 0.00e+000 1.01e-006 -11.0 3.13e-003    -  1.00e+000 2.50e-001f  3
  27 6.7035507e-007 0.00e+000 1.48e-006 -11.0 1.71e-003    -  1.00e+000 1.00e+000f  1
  28 6.7034984e-007 0.00e+000 1.01e-006 -11.0 8.03e-003    -  1.00e+000 1.25e-001f  4
  29 6.7034512e-007 0.00e+000 8.08e-007 -11.0 6.91e-003    -  1.00e+000 1.25e-001f  4
iter    objective    inf_pr   inf_du lg(mu)  ||d||  lg(rg) alpha_du alpha_pr  ls
  30 6.7034317e-007 0.00e+000 1.19e-006 -11.0 3.27e-003    -  1.00e+000 2.50e-001f  3
  31 6.7034016e-007 0.00e+000 7.84e-007 -11.0 2.97e-003    -  1.00e+000 2.50e-001f  3
  32 6.7033989e-007 0.00e+000 9.87e-007 -11.0 3.82e-003    -  1.00e+000 2.50e-001f  3
  33 6.7033742e-007 0.00e+000 9.32e-007 -11.0 2.74e-003    -  1.00e+000 2.50e-001f  3
  34 6.7033340e-007 0.00e+000 5.05e-007 -11.0 3.67e-003    -  1.00e+000 2.50e-001f  3
  35 6.7033123e-007 0.00e+000 4.26e-007 -11.0 2.48e-003    -  1.00e+000 1.25e-001f  4
  36 6.7032952e-007 0.00e+000 3.42e-007 -11.0 8.09e-004    -  1.00e+000 5.00e-001f  2
  37 6.7032879e-007 0.00e+000 4.69e-007 -11.0 3.15e-003    -  1.00e+000 1.25e-001f  4
  38 6.7033798e-007 0.00e+000 1.49e-006 -11.0 1.79e-003    -  1.00e+000 1.00e+000w  1
  39 6.7053376e-007 0.00e+000 6.81e-006 -11.0 7.32e-003    -  1.00e+000 1.00e+000w  1
iter    objective    inf_pr   inf_du lg(mu)  ||d||  lg(rg) alpha_du alpha_pr  ls
  40 6.7055646e-007 0.00e+000 6.65e-006 -11.0 4.01e-003    -  1.00e+000 1.00e+000w  1
  41 6.7032771e-007 0.00e+000 4.05e-007 -11.0 8.56e-003    -  1.00e+000 2.50e-001f  2
  42 6.7032618e-007 0.00e+000 2.66e-007 -11.0 1.81e-003    -  1.00e+000 5.00e-001f  2
  43 6.7032615e-007 0.00e+000 4.63e-007 -11.0 7.23e-003    -  1.00e+000 6.25e-002f  5
  44 6.7032598e-007 0.00e+000 4.34e-007 -11.0 1.61e-003    -  1.00e+000 5.00e-001f  2
  45 6.7032539e-007 0.00e+000 4.51e-007 -11.0 1.51e-003    -  1.00e+000 2.50e-001f  3
  46 6.7032446e-007 0.00e+000 3.48e-007 -11.0 3.54e-004    -  1.00e+000 5.00e-001f  2
  47 6.7032377e-007 0.00e+000 3.28e-007 -11.0 3.04e-004    -  1.00e+000 5.00e-001f  2
  48 6.7032358e-007 0.00e+000 2.54e-007 -11.0 2.53e-004    -  1.00e+000 5.00e-001f  2
  49 6.7032328e-007 0.00e+000 1.85e-007 -11.0 1.38e-004    -  1.00e+000 1.00e+000f  1
iter    objective    inf_pr   inf_du lg(mu)  ||d||  lg(rg) alpha_du alpha_pr  ls
  50 6.7032317e-007 0.00e+000 2.06e-007 -11.0 5.55e-004    -  1.00e+000 5.00e-001f  2
  51 6.7032304e-007 0.00e+000 2.41e-007 -11.0 1.31e-003    -  1.00e+000 1.25e-001f  4
  52 6.7032299e-007 0.00e+000 2.20e-007 -11.0 1.77e-003    -  1.00e+000 2.50e-001f  3
  53 6.7032287e-007 0.00e+000 2.07e-007 -11.0 2.96e-003    -  1.00e+000 6.25e-002f  5
  54 6.7032279e-007 0.00e+000 3.58e-007 -11.0 3.11e-003    -  1.00e+000 1.25e-001f  4
  55 6.7032272e-007 0.00e+000 2.44e-007 -11.0 2.31e-003    -  1.00e+000 6.25e-002f  5

Number of Iterations....: 55

                                   (scaled)                 (unscaled)
Objective...............:  6.7032271773257878e-007   6.7032271773257878e-007
Dual infeasibility......:  2.4421718950166005e-007   2.4421718950166005e-007
Constraint violation....:  0.0000000000000000e+000   0.0000000000000000e+000
Complementarity.........:  0.0000000000000000e+000   0.0000000000000000e+000
Overall NLP error.......:  2.4421718950166005e-007   2.4421718950166005e-007


Number of objective function evaluations             = 259
Number of objective gradient evaluations             = 56
Number of equality constraint evaluations            = 0
Number of inequality constraint evaluations          = 0
Number of equality constraint Jacobian evaluations   = 0
Number of inequality constraint Jacobian evaluations = 0
Number of Lagrangian Hessian evaluations             = 0
Total CPU secs in IPOPT (w/o function evaluations)   =     61.034
Total CPU secs in NLP function evaluations           =    780.164

EXIT: Solved To Acceptable Level.
